Maximize
   x1 +  x2 +  x3 +  x4 +  x5 +  x6 +  x7 +  x8 +  x9 +  x10 +  x11 +  x12 +  x13 +  x14 +  x15 

Subject To
DEG1: x1 + x2 + x3 <= 1
DEG2: x4 + x5 + x6 <= 1
DEG3: x1 + x7 + x8 <= 1
DEG4: x2 + x4 + x9 <= 1
DEG5: x5 + x7 + x10 <= 1
DEG6: x3 + x11 + x12 <= 1
DEG7: x6 + x11 + x13 <= 1
DEG8: x8 + x13 + x14 <= 1
DEG9: x9 + x14 + x15 <= 1
DEG10: x10 + x12 + x15 <= 1
(1,2)-SEP_#1: x1 + x2 + x3 +x4+x5+x6 -x1 -x7 -x8 -x2 -x4 -x9 -x3 -x11 -x12 <= 1
(1,2)-SEP_#2: x1 + x2 + x3 +x4+x5+x6 -x8 -x13 -x14 -x2 -x4 -x9 -x5 -x7 -x10 -x3 -x11 -x12 <= 1
(1,2)-SEP_#3: x1 + x2 + x3 +x4+x5+x6 -x10 -x12 -x15 -x1 -x7 -x8 -x2 -x4 -x9 -x6 -x11 -x13 <= 1
(1,2)-SEP_#4: x1 + x2 + x3 +x4+x5+x6 -x2 -x4 -x9 -x5 -x7 -x10 -x6 -x11 -x13 <= 1
(1,5)-SEP_#1: x1 + x2 + x3 +x5+x7+x10 -x1 -x7 -x8 -x2 -x4 -x9 -x3 -x11 -x12 <= 1
(1,5)-SEP_#2: x1 + x2 + x3 +x5+x7+x10 -x9 -x14 -x15 -x4 -x5 -x6 -x1 -x7 -x8 -x3 -x11 -x12 <= 1
(1,5)-SEP_#3: x1 + x2 + x3 +x5+x7+x10 -x10 -x12 -x15 -x1 -x7 -x8 -x2 -x4 -x9 -x6 -x11 -x13 <= 1
(1,5)-SEP_#4: x1 + x2 + x3 +x5+x7+x10 -x10 -x12 -x15 -x4 -x5 -x6 -x1 -x7 -x8 <= 1
(1,7)-SEP_#1: x1 + x2 + x3 +x6+x11+x13 -x1 -x7 -x8 -x2 -x4 -x9 -x3 -x11 -x12 <= 1
(1,7)-SEP_#2: x1 + x2 + x3 +x6+x11+x13 -x8 -x13 -x14 -x2 -x4 -x9 -x5 -x7 -x10 -x3 -x11 -x12 <= 1
(1,7)-SEP_#3: x1 + x2 + x3 +x6+x11+x13 -x9 -x14 -x15 -x4 -x5 -x6 -x1 -x7 -x8 -x3 -x11 -x12 <= 1
(1,7)-SEP_#4: x1 + x2 + x3 +x6+x11+x13 -x8 -x13 -x14 -x4 -x5 -x6 -x3 -x11 -x12 <= 1
(1,8)-SEP_#1: x1 + x2 + x3 +x8+x13+x14 -x1 -x7 -x8 -x2 -x4 -x9 -x3 -x11 -x12 <= 1
(1,8)-SEP_#2: x1 + x2 + x3 +x8+x13+x14 -x9 -x14 -x15 -x4 -x5 -x6 -x1 -x7 -x8 -x3 -x11 -x12 <= 1
(1,8)-SEP_#3: x1 + x2 + x3 +x8+x13+x14 -x10 -x12 -x15 -x1 -x7 -x8 -x2 -x4 -x9 -x6 -x11 -x13 <= 1
(1,8)-SEP_#4: x1 + x2 + x3 +x8+x13+x14 -x9 -x14 -x15 -x1 -x7 -x8 -x6 -x11 -x13 <= 1
(1,9)-SEP_#1: x1 + x2 + x3 +x9+x14+x15 -x1 -x7 -x8 -x2 -x4 -x9 -x3 -x11 -x12 <= 1
(1,9)-SEP_#2: x1 + x2 + x3 +x9+x14+x15 -x8 -x13 -x14 -x2 -x4 -x9 -x5 -x7 -x10 -x3 -x11 -x12 <= 1
(1,9)-SEP_#3: x1 + x2 + x3 +x9+x14+x15 -x10 -x12 -x15 -x1 -x7 -x8 -x2 -x4 -x9 -x6 -x11 -x13 <= 1
(1,9)-SEP_#4: x1 + x2 + x3 +x9+x14+x15 -x8 -x13 -x14 -x10 -x12 -x15 -x2 -x4 -x9 <= 1
(1,10)-SEP_#1: x1 + x2 + x3 +x10+x12+x15 -x1 -x7 -x8 -x2 -x4 -x9 -x3 -x11 -x12 <= 1
(1,10)-SEP_#2: x1 + x2 + x3 +x10+x12+x15 -x8 -x13 -x14 -x2 -x4 -x9 -x5 -x7 -x10 -x3 -x11 -x12 <= 1
(1,10)-SEP_#3: x1 + x2 + x3 +x10+x12+x15 -x9 -x14 -x15 -x4 -x5 -x6 -x1 -x7 -x8 -x3 -x11 -x12 <= 1
(1,10)-SEP_#4: x1 + x2 + x3 +x10+x12+x15 -x9 -x14 -x15 -x5 -x7 -x10 -x3 -x11 -x12 <= 1
(2,3)-SEP_#1: x4 + x5 + x6 +x1+x7+x8 -x2 -x4 -x9 -x5 -x7 -x10 -x6 -x11 -x13 <= 1
(2,3)-SEP_#2: x4 + x5 + x6 +x1+x7+x8 -x1 -x2 -x3 -x5 -x7 -x10 -x9 -x14 -x15 -x6 -x11 -x13 <= 1
(2,3)-SEP_#3: x4 + x5 + x6 +x1+x7+x8 -x8 -x13 -x14 -x2 -x4 -x9 -x5 -x7 -x10 -x3 -x11 -x12 <= 1
(2,3)-SEP_#4: x4 + x5 + x6 +x1+x7+x8 -x8 -x13 -x14 -x1 -x2 -x3 -x5 -x7 -x10 <= 1
(2,6)-SEP_#1: x4 + x5 + x6 +x3+x11+x12 -x2 -x4 -x9 -x5 -x7 -x10 -x6 -x11 -x13 <= 1
(2,6)-SEP_#2: x4 + x5 + x6 +x3+x11+x12 -x1 -x2 -x3 -x5 -x7 -x10 -x9 -x14 -x15 -x6 -x11 -x13 <= 1
(2,6)-SEP_#3: x4 + x5 + x6 +x3+x11+x12 -x10 -x12 -x15 -x1 -x7 -x8 -x2 -x4 -x9 -x6 -x11 -x13 <= 1
(2,6)-SEP_#4: x4 + x5 + x6 +x3+x11+x12 -x1 -x2 -x3 -x10 -x12 -x15 -x6 -x11 -x13 <= 1
(2,8)-SEP_#1: x4 + x5 + x6 +x8+x13+x14 -x2 -x4 -x9 -x5 -x7 -x10 -x6 -x11 -x13 <= 1
(2,8)-SEP_#2: x4 + x5 + x6 +x8+x13+x14 -x1 -x2 -x3 -x5 -x7 -x10 -x9 -x14 -x15 -x6 -x11 -x13 <= 1
(2,8)-SEP_#3: x4 + x5 + x6 +x8+x13+x14 -x10 -x12 -x15 -x1 -x7 -x8 -x2 -x4 -x9 -x6 -x11 -x13 <= 1
(2,8)-SEP_#4: x4 + x5 + x6 +x8+x13+x14 -x9 -x14 -x15 -x1 -x7 -x8 -x6 -x11 -x13 <= 1
(2,9)-SEP_#1: x4 + x5 + x6 +x9+x14+x15 -x2 -x4 -x9 -x5 -x7 -x10 -x6 -x11 -x13 <= 1
(2,9)-SEP_#2: x4 + x5 + x6 +x9+x14+x15 -x10 -x12 -x15 -x1 -x7 -x8 -x2 -x4 -x9 -x6 -x11 -x13 <= 1
(2,9)-SEP_#3: x4 + x5 + x6 +x9+x14+x15 -x8 -x13 -x14 -x2 -x4 -x9 -x5 -x7 -x10 -x3 -x11 -x12 <= 1
(2,9)-SEP_#4: x4 + x5 + x6 +x9+x14+x15 -x8 -x13 -x14 -x10 -x12 -x15 -x2 -x4 -x9 <= 1
(2,10)-SEP_#1: x4 + x5 + x6 +x10+x12+x15 -x2 -x4 -x9 -x5 -x7 -x10 -x6 -x11 -x13 <= 1
(2,10)-SEP_#2: x4 + x5 + x6 +x10+x12+x15 -x1 -x2 -x3 -x5 -x7 -x10 -x9 -x14 -x15 -x6 -x11 -x13 <= 1
(2,10)-SEP_#3: x4 + x5 + x6 +x10+x12+x15 -x8 -x13 -x14 -x2 -x4 -x9 -x5 -x7 -x10 -x3 -x11 -x12 <= 1
(2,10)-SEP_#4: x4 + x5 + x6 +x10+x12+x15 -x9 -x14 -x15 -x5 -x7 -x10 -x3 -x11 -x12 <= 1
(3,4)-SEP_#1: x1 + x7 + x8 +x2+x4+x9 -x8 -x13 -x14 -x1 -x2 -x3 -x5 -x7 -x10 <= 1
(3,4)-SEP_#2: x1 + x7 + x8 +x2+x4+x9 -x1 -x2 -x3 -x5 -x7 -x10 -x9 -x14 -x15 -x6 -x11 -x13 <= 1
(3,4)-SEP_#3: x1 + x7 + x8 +x2+x4+x9 -x8 -x13 -x14 -x1 -x2 -x3 -x4 -x5 -x6 -x10 -x12 -x15 <= 1
(3,4)-SEP_#4: x1 + x7 + x8 +x2+x4+x9 -x1 -x2 -x3 -x4 -x5 -x6 -x9 -x14 -x15 <= 1
(3,6)-SEP_#1: x1 + x7 + x8 +x3+x11+x12 -x8 -x13 -x14 -x1 -x2 -x3 -x5 -x7 -x10 <= 1
(3,6)-SEP_#2: x1 + x7 + x8 +x3+x11+x12 -x1 -x2 -x3 -x5 -x7 -x10 -x9 -x14 -x15 -x6 -x11 -x13 <= 1
(3,6)-SEP_#3: x1 + x7 + x8 +x3+x11+x12 -x8 -x13 -x14 -x1 -x2 -x3 -x4 -x5 -x6 -x10 -x12 -x15 <= 1
(3,6)-SEP_#4: x1 + x7 + x8 +x3+x11+x12 -x1 -x2 -x3 -x10 -x12 -x15 -x6 -x11 -x13 <= 1
(3,7)-SEP_#1: x1 + x7 + x8 +x6+x11+x13 -x8 -x13 -x14 -x1 -x2 -x3 -x5 -x7 -x10 <= 1
(3,7)-SEP_#2: x1 + x7 + x8 +x6+x11+x13 -x8 -x13 -x14 -x2 -x4 -x9 -x5 -x7 -x10 -x3 -x11 -x12 <= 1
(3,7)-SEP_#3: x1 + x7 + x8 +x6+x11+x13 -x8 -x13 -x14 -x1 -x2 -x3 -x4 -x5 -x6 -x10 -x12 -x15 <= 1
(3,7)-SEP_#4: x1 + x7 + x8 +x6+x11+x13 -x8 -x13 -x14 -x4 -x5 -x6 -x3 -x11 -x12 <= 1
(3,9)-SEP_#1: x1 + x7 + x8 +x9+x14+x15 -x8 -x13 -x14 -x1 -x2 -x3 -x5 -x7 -x10 <= 1
(3,9)-SEP_#2: x1 + x7 + x8 +x9+x14+x15 -x8 -x13 -x14 -x2 -x4 -x9 -x5 -x7 -x10 -x3 -x11 -x12 <= 1
(3,9)-SEP_#3: x1 + x7 + x8 +x9+x14+x15 -x8 -x13 -x14 -x1 -x2 -x3 -x4 -x5 -x6 -x10 -x12 -x15 <= 1
(3,9)-SEP_#4: x1 + x7 + x8 +x9+x14+x15 -x8 -x13 -x14 -x10 -x12 -x15 -x2 -x4 -x9 <= 1
(3,10)-SEP_#1: x1 + x7 + x8 +x10+x12+x15 -x8 -x13 -x14 -x1 -x2 -x3 -x5 -x7 -x10 <= 1
(3,10)-SEP_#2: x1 + x7 + x8 +x10+x12+x15 -x1 -x2 -x3 -x5 -x7 -x10 -x9 -x14 -x15 -x6 -x11 -x13 <= 1
(3,10)-SEP_#3: x1 + x7 + x8 +x10+x12+x15 -x8 -x13 -x14 -x2 -x4 -x9 -x5 -x7 -x10 -x3 -x11 -x12 <= 1
(3,10)-SEP_#4: x1 + x7 + x8 +x10+x12+x15 -x9 -x14 -x15 -x5 -x7 -x10 -x3 -x11 -x12 <= 1
(4,5)-SEP_#1: x2 + x4 + x9 +x5+x7+x10 -x1 -x2 -x3 -x4 -x5 -x6 -x9 -x14 -x15 <= 1
(4,5)-SEP_#2: x2 + x4 + x9 +x5+x7+x10 -x9 -x14 -x15 -x4 -x5 -x6 -x1 -x7 -x8 -x3 -x11 -x12 <= 1
(4,5)-SEP_#3: x2 + x4 + x9 +x5+x7+x10 -x8 -x13 -x14 -x1 -x2 -x3 -x4 -x5 -x6 -x10 -x12 -x15 <= 1
(4,5)-SEP_#4: x2 + x4 + x9 +x5+x7+x10 -x10 -x12 -x15 -x4 -x5 -x6 -x1 -x7 -x8 <= 1
(4,6)-SEP_#1: x2 + x4 + x9 +x3+x11+x12 -x1 -x2 -x3 -x4 -x5 -x6 -x9 -x14 -x15 <= 1
(4,6)-SEP_#2: x2 + x4 + x9 +x3+x11+x12 -x1 -x2 -x3 -x5 -x7 -x10 -x9 -x14 -x15 -x6 -x11 -x13 <= 1
(4,6)-SEP_#3: x2 + x4 + x9 +x3+x11+x12 -x8 -x13 -x14 -x1 -x2 -x3 -x4 -x5 -x6 -x10 -x12 -x15 <= 1
(4,6)-SEP_#4: x2 + x4 + x9 +x3+x11+x12 -x1 -x2 -x3 -x10 -x12 -x15 -x6 -x11 -x13 <= 1
(4,7)-SEP_#1: x2 + x4 + x9 +x6+x11+x13 -x1 -x2 -x3 -x4 -x5 -x6 -x9 -x14 -x15 <= 1
(4,7)-SEP_#2: x2 + x4 + x9 +x6+x11+x13 -x9 -x14 -x15 -x4 -x5 -x6 -x1 -x7 -x8 -x3 -x11 -x12 <= 1
(4,7)-SEP_#3: x2 + x4 + x9 +x6+x11+x13 -x8 -x13 -x14 -x1 -x2 -x3 -x4 -x5 -x6 -x10 -x12 -x15 <= 1
(4,7)-SEP_#4: x2 + x4 + x9 +x6+x11+x13 -x8 -x13 -x14 -x4 -x5 -x6 -x3 -x11 -x12 <= 1
(4,8)-SEP_#1: x2 + x4 + x9 +x8+x13+x14 -x1 -x2 -x3 -x4 -x5 -x6 -x9 -x14 -x15 <= 1
(4,8)-SEP_#2: x2 + x4 + x9 +x8+x13+x14 -x9 -x14 -x15 -x4 -x5 -x6 -x1 -x7 -x8 -x3 -x11 -x12 <= 1
(4,8)-SEP_#3: x2 + x4 + x9 +x8+x13+x14 -x1 -x2 -x3 -x5 -x7 -x10 -x9 -x14 -x15 -x6 -x11 -x13 <= 1
(4,8)-SEP_#4: x2 + x4 + x9 +x8+x13+x14 -x9 -x14 -x15 -x1 -x7 -x8 -x6 -x11 -x13 <= 1
(4,10)-SEP_#1: x2 + x4 + x9 +x10+x12+x15 -x1 -x2 -x3 -x4 -x5 -x6 -x9 -x14 -x15 <= 1
(4,10)-SEP_#2: x2 + x4 + x9 +x10+x12+x15 -x9 -x14 -x15 -x4 -x5 -x6 -x1 -x7 -x8 -x3 -x11 -x12 <= 1
(4,10)-SEP_#3: x2 + x4 + x9 +x10+x12+x15 -x1 -x2 -x3 -x5 -x7 -x10 -x9 -x14 -x15 -x6 -x11 -x13 <= 1
(4,10)-SEP_#4: x2 + x4 + x9 +x10+x12+x15 -x9 -x14 -x15 -x5 -x7 -x10 -x3 -x11 -x12 <= 1
(5,6)-SEP_#1: x5 + x7 + x10 +x3+x11+x12 -x4 -x5 -x6 -x10 -x12 -x15 -x1 -x7 -x8 <= 1
(5,6)-SEP_#2: x5 + x7 + x10 +x3+x11+x12 -x10 -x12 -x15 -x1 -x7 -x8 -x2 -x4 -x9 -x6 -x11 -x13 <= 1
(5,6)-SEP_#3: x5 + x7 + x10 +x3+x11+x12 -x8 -x13 -x14 -x1 -x2 -x3 -x4 -x5 -x6 -x10 -x12 -x15 <= 1
(5,6)-SEP_#4: x5 + x7 + x10 +x3+x11+x12 -x1 -x2 -x3 -x10 -x12 -x15 -x6 -x11 -x13 <= 1
(5,7)-SEP_#1: x5 + x7 + x10 +x6+x11+x13 -x4 -x5 -x6 -x10 -x12 -x15 -x1 -x7 -x8 <= 1
(5,7)-SEP_#2: x5 + x7 + x10 +x6+x11+x13 -x9 -x14 -x15 -x4 -x5 -x6 -x1 -x7 -x8 -x3 -x11 -x12 <= 1
(5,7)-SEP_#3: x5 + x7 + x10 +x6+x11+x13 -x8 -x13 -x14 -x1 -x2 -x3 -x4 -x5 -x6 -x10 -x12 -x15 <= 1
(5,7)-SEP_#4: x5 + x7 + x10 +x6+x11+x13 -x8 -x13 -x14 -x4 -x5 -x6 -x3 -x11 -x12 <= 1
(5,8)-SEP_#1: x5 + x7 + x10 +x8+x13+x14 -x4 -x5 -x6 -x10 -x12 -x15 -x1 -x7 -x8 <= 1
(5,8)-SEP_#2: x5 + x7 + x10 +x8+x13+x14 -x10 -x12 -x15 -x1 -x7 -x8 -x2 -x4 -x9 -x6 -x11 -x13 <= 1
(5,8)-SEP_#3: x5 + x7 + x10 +x8+x13+x14 -x9 -x14 -x15 -x4 -x5 -x6 -x1 -x7 -x8 -x3 -x11 -x12 <= 1
(5,8)-SEP_#4: x5 + x7 + x10 +x8+x13+x14 -x9 -x14 -x15 -x1 -x7 -x8 -x6 -x11 -x13 <= 1
(5,9)-SEP_#1: x5 + x7 + x10 +x9+x14+x15 -x4 -x5 -x6 -x10 -x12 -x15 -x1 -x7 -x8 <= 1
(5,9)-SEP_#2: x5 + x7 + x10 +x9+x14+x15 -x10 -x12 -x15 -x1 -x7 -x8 -x2 -x4 -x9 -x6 -x11 -x13 <= 1
(5,9)-SEP_#3: x5 + x7 + x10 +x9+x14+x15 -x8 -x13 -x14 -x1 -x2 -x3 -x4 -x5 -x6 -x10 -x12 -x15 <= 1
(5,9)-SEP_#4: x5 + x7 + x10 +x9+x14+x15 -x8 -x13 -x14 -x10 -x12 -x15 -x2 -x4 -x9 <= 1
(6,8)-SEP_#1: x3 + x11 + x12 +x8+x13+x14 -x1 -x2 -x3 -x10 -x12 -x15 -x6 -x11 -x13 <= 1
(6,8)-SEP_#2: x3 + x11 + x12 +x8+x13+x14 -x10 -x12 -x15 -x1 -x7 -x8 -x2 -x4 -x9 -x6 -x11 -x13 <= 1
(6,8)-SEP_#3: x3 + x11 + x12 +x8+x13+x14 -x1 -x2 -x3 -x5 -x7 -x10 -x9 -x14 -x15 -x6 -x11 -x13 <= 1
(6,8)-SEP_#4: x3 + x11 + x12 +x8+x13+x14 -x9 -x14 -x15 -x1 -x7 -x8 -x6 -x11 -x13 <= 1
(6,9)-SEP_#1: x3 + x11 + x12 +x9+x14+x15 -x1 -x2 -x3 -x10 -x12 -x15 -x6 -x11 -x13 <= 1
(6,9)-SEP_#2: x3 + x11 + x12 +x9+x14+x15 -x10 -x12 -x15 -x1 -x7 -x8 -x2 -x4 -x9 -x6 -x11 -x13 <= 1
(6,9)-SEP_#3: x3 + x11 + x12 +x9+x14+x15 -x8 -x13 -x14 -x1 -x2 -x3 -x4 -x5 -x6 -x10 -x12 -x15 <= 1
(6,9)-SEP_#4: x3 + x11 + x12 +x9+x14+x15 -x8 -x13 -x14 -x10 -x12 -x15 -x2 -x4 -x9 <= 1
(7,9)-SEP_#1: x6 + x11 + x13 +x9+x14+x15 -x8 -x13 -x14 -x4 -x5 -x6 -x3 -x11 -x12 <= 1
(7,9)-SEP_#2: x6 + x11 + x13 +x9+x14+x15 -x8 -x13 -x14 -x2 -x4 -x9 -x5 -x7 -x10 -x3 -x11 -x12 <= 1
(7,9)-SEP_#3: x6 + x11 + x13 +x9+x14+x15 -x8 -x13 -x14 -x1 -x2 -x3 -x4 -x5 -x6 -x10 -x12 -x15 <= 1
(7,9)-SEP_#4: x6 + x11 + x13 +x9+x14+x15 -x8 -x13 -x14 -x10 -x12 -x15 -x2 -x4 -x9 <= 1
(7,10)-SEP_#1: x6 + x11 + x13 +x10+x12+x15 -x8 -x13 -x14 -x4 -x5 -x6 -x3 -x11 -x12 <= 1
(7,10)-SEP_#2: x6 + x11 + x13 +x10+x12+x15 -x9 -x14 -x15 -x4 -x5 -x6 -x1 -x7 -x8 -x3 -x11 -x12 <= 1
(7,10)-SEP_#3: x6 + x11 + x13 +x10+x12+x15 -x8 -x13 -x14 -x2 -x4 -x9 -x5 -x7 -x10 -x3 -x11 -x12 <= 1
(7,10)-SEP_#4: x6 + x11 + x13 +x10+x12+x15 -x9 -x14 -x15 -x5 -x7 -x10 -x3 -x11 -x12 <= 1
(8,10)-SEP_#1: x8 + x13 + x14 +x10+x12+x15 -x9 -x14 -x15 -x1 -x7 -x8 -x6 -x11 -x13 <= 1
(8,10)-SEP_#2: x8 + x13 + x14 +x10+x12+x15 -x1 -x2 -x3 -x5 -x7 -x10 -x9 -x14 -x15 -x6 -x11 -x13 <= 1
(8,10)-SEP_#3: x8 + x13 + x14 +x10+x12+x15 -x9 -x14 -x15 -x4 -x5 -x6 -x1 -x7 -x8 -x3 -x11 -x12 <= 1
(8,10)-SEP_#4: x8 + x13 + x14 +x10+x12+x15 -x9 -x14 -x15 -x5 -x7 -x10 -x3 -x11 -x12 <= 1

Bounds

Binaries
 x1  x2  x3  x4  x5  x6  x7  x8  x9  x10  x11  x12  x13  x14  x15 

End
